p edge 23 136
e 1 4
e 1 2
e 1 3
e 1 10
e 1 18
e 1 2
e 1 3
e 1 4
e 1 10
e 1 18
e 2 15
e 2 13
e 2 13
e 2 15
e 3 8
e 3 4
e 3 5
e 3 10
e 3 18
e 3 4
e 3 5
e 3 8
e 3 10
e 3 18
e 4 5
e 4 15
e 4 19
e 4 5
e 4 15
e 4 19
e 5 13
e 5 8
e 5 6
e 5 16
e 5 20
e 5 6
e 5 8
e 5 13
e 5 16
e 5 20
e 6 9
e 6 12
e 6 7
e 6 16
e 6 20
e 6 7
e 6 9
e 6 12
e 6 16
e 6 20
e 7 9
e 7 14
e 7 18
e 7 12
e 7 9
e 7 12
e 7 14
e 7 18
e 8 9
e 8 17
e 8 9
e 8 17
e 9 12
e 9 14
e 9 18
e 9 11
e 9 21
e 9 11
e 9 12
e 9 14
e 9 18
e 9 21
e 10 20
e 10 11
e 10 12
e 10 13
e 10 18
e 10 11
e 10 12
e 10 13
e 10 18
e 10 20
e 11 22
e 11 17
e 11 19
e 11 12
e 11 13
e 11 21
e 11 12
e 11 13
e 11 17
e 11 19
e 11 21
e 11 22
e 12 16
e 12 13
e 12 13
e 12 16
e 14 16
e 14 18
e 14 23
e 14 16
e 14 18
e 14 23
e 15 17
e 15 16
e 15 19
e 15 16
e 15 17
e 15 19
e 16 20
e 16 20
e 17 19
e 17 19
e 18 19
e 18 20
e 18 21
e 18 22
e 18 19
e 18 20
e 18 21
e 18 22
e 19 20
e 19 21
e 19 22
e 19 20
e 19 21
e 19 22
e 20 23
e 20 21
e 20 22
e 20 21
e 20 22
e 20 23
e 21 22
e 21 22
